NAME: cuum450.tsp
TYPE: TSP
COMMENT: User-generated TSP file
DIMENSION: 450
EDGE_WEIGHT_TYPE: EUC_2D
NODE_COORD_SECTION
1 170.0 61.0
2 346.0 221.0
3 120.0 173.0
4 178.0 258.0
5 324.0 371.0
6 226.0 96.0
7 18.0 322.0
8 347.0 48.0
9 6.0 53.0
10 249.0 299.0
11 15.0 70.0
12 40.0 241.0
13 284.0 101.0
14 36.0 348.0
15 437.0 278.0
16 345.0 68.0
17 95.0 72.0
18 296.0 242.0
19 116.0 362.0
20 194.0 379.0
21 257.0 354.0
22 70.0 18.0
23 11.0 69.0
24 323.0 423.0
25 73.0 245.0
26 210.0 252.0
27 133.0 422.0
28 15.0 307.0
29 443.0 414.0
30 442.0 433.0
31 119.0 133.0
32 361.0 403.0
33 254.0 242.0
34 414.0 90.0
35 2.0 202.0
36 176.0 239.0
37 326.0 357.0
38 277.0 339.0
39 236.0 297.0
40 239.0 223.0
41 37.0 25.0
42 107.0 448.0
43 355.0 401.0
44 246.0 424.0
45 187.0 131.0
46 262.0 236.0
47 205.0 243.0
48 254.0 220.0
49 75.0 365.0
50 22.0 366.0
51 269.0 32.0
52 130.0 300.0
53 429.0 124.0
54 136.0 325.0
55 217.0 317.0
56 406.0 56.0
57 187.0 166.0
58 140.0 329.0
59 303.0 13.0
60 380.0 293.0
61 388.0 441.0
62 28.0 151.0
63 28.0 115.0
64 50.0 282.0
65 440.0 435.0
66 206.0 279.0
67 323.0 60.0
68 62.0 63.0
69 350.0 192.0
70 81.0 162.0
71 49.0 238.0
72 249.0 380.0
73 318.0 276.0
74 354.0 37.0
75 331.0 163.0
76 178.0 268.0
77 12.0 131.0
78 187.0 437.0
79 376.0 156.0
80 433.0 174.0
81 91.0 112.0
82 199.0 223.0
83 14.0 277.0
84 161.0 339.0
85 327.0 185.0
86 115.0 49.0
87 407.0 240.0
88 176.0 274.0
89 161.0 156.0
90 222.0 227.0
91 58.0 102.0
92 194.0 375.0
93 412.0 4.0
94 144.0 62.0
95 441.0 384.0
96 209.0 212.0
97 38.0 168.0
98 440.0 416.0
99 137.0 321.0
100 164.0 136.0
101 154.0 297.0
102 56.0 28.0
103 35.0 364.0
104 59.0 353.0
105 92.0 138.0
106 396.0 274.0
107 364.0 13.0
108 118.0 257.0
109 215.0 371.0
110 140.0 165.0
111 432.0 357.0
112 232.0 297.0
113 141.0 293.0
114 167.0 323.0
115 371.0 281.0
116 397.0 259.0
117 276.0 31.0
118 378.0 177.0
119 146.0 427.0
120 184.0 341.0
121 75.0 334.0
122 324.0 412.0
123 121.0 97.0
124 156.0 311.0
125 207.0 8.0
126 119.0 73.0
127 330.0 191.0
128 150.0 212.0
129 164.0 76.0
130 33.0 322.0
131 216.0 441.0
132 105.0 51.0
133 186.0 397.0
134 25.0 275.0
135 90.0 43.0
136 140.0 14.0
137 74.0 237.0
138 259.0 333.0
139 40.0 184.0
140 446.0 66.0
141 17.0 405.0
142 82.0 411.0
143 383.0 294.0
144 436.0 109.0
145 305.0 364.0
146 180.0 343.0
147 230.0 34.0
148 74.0 208.0
149 366.0 312.0
150 307.0 249.0
151 416.0 392.0
152 26.0 443.0
153 251.0 102.0
154 186.0 2.0
155 30.0 213.0
156 380.0 211.0
157 131.0 58.0
158 156.0 79.0
159 261.0 309.0
160 131.0 59.0
161 257.0 313.0
162 203.0 294.0
163 429.0 400.0
164 389.0 413.0
165 171.0 421.0
166 156.0 354.0
167 307.0 347.0
168 232.0 348.0
169 219.0 177.0
170 58.0 30.0
171 116.0 346.0
172 252.0 24.0
173 104.0 26.0
174 44.0 39.0
175 286.0 188.0
176 70.0 126.0
177 237.0 401.0
178 8.0 332.0
179 315.0 284.0
180 274.0 1.0
181 204.0 173.0
182 343.0 447.0
183 226.0 41.0
184 70.0 166.0
185 412.0 54.0
186 82.0 246.0
187 362.0 196.0
188 214.0 184.0
189 167.0 289.0
190 89.0 375.0
191 220.0 151.0
192 171.0 188.0
193 297.0 116.0
194 157.0 75.0
195 148.0 96.0
196 386.0 172.0
197 427.0 299.0
198 415.0 163.0
199 354.0 312.0
200 277.0 175.0
201 400.0 109.0
202 237.0 215.0
203 361.0 15.0
204 194.0 249.0
205 308.0 420.0
206 210.0 160.0
207 101.0 140.0
208 29.0 254.0
209 215.0 135.0
210 242.0 247.0
211 149.0 172.0
212 251.0 391.0
213 140.0 18.0
214 70.0 382.0
215 172.0 102.0
216 324.0 332.0
217 159.0 113.0
218 147.0 168.0
219 400.0 27.0
220 290.0 263.0
221 30.0 419.0
222 131.0 144.0
223 63.0 211.0
224 240.0 335.0
225 224.0 261.0
226 76.0 183.0
227 228.0 85.0
228 162.0 205.0
229 334.0 266.0
230 416.0 51.0
231 401.0 305.0
232 299.0 354.0
233 146.0 400.0
234 190.0 259.0
235 370.0 405.0
236 129.0 387.0
237 294.0 92.0
238 246.0 393.0
239 183.0 139.0
240 109.0 265.0
241 242.0 182.0
242 305.0 198.0
243 276.0 389.0
244 190.0 112.0
245 324.0 276.0
246 369.0 211.0
247 87.0 289.0
248 62.0 275.0
249 58.0 220.0
250 207.0 400.0
251 126.0 54.0
252 186.0 203.0
253 200.0 180.0
254 176.0 232.0
255 449.0 140.0
256 350.0 40.0
257 164.0 224.0
258 360.0 304.0
259 347.0 54.0
260 300.0 419.0
261 45.0 122.0
262 105.0 335.0
263 357.0 92.0
264 178.0 444.0
265 49.0 439.0
266 149.0 43.0
267 39.0 171.0
268 393.0 302.0
269 34.0 251.0
270 242.0 286.0
271 47.0 263.0
272 122.0 380.0
273 288.0 28.0
274 217.0 112.0
275 127.0 446.0
276 21.0 439.0
277 341.0 68.0
278 441.0 310.0
279 295.0 291.0
280 164.0 353.0
281 361.0 42.0
282 211.0 416.0
283 160.0 142.0
284 138.0 101.0
285 187.0 218.0
286 11.0 215.0
287 361.0 228.0
288 412.0 64.0
289 262.0 226.0
290 157.0 186.0
291 252.0 262.0
292 375.0 186.0
293 186.0 53.0
294 59.0 158.0
295 48.0 122.0
296 266.0 323.0
297 2.0 141.0
298 224.0 203.0
299 149.0 159.0
300 368.0 203.0
301 263.0 308.0
302 358.0 134.0
303 292.0 266.0
304 88.0 34.0
305 190.0 157.0
306 144.0 90.0
307 178.0 79.0
308 225.0 416.0
309 395.0 68.0
310 87.0 34.0
311 284.0 364.0
312 333.0 408.0
313 103.0 165.0
314 102.0 23.0
315 175.0 304.0
316 307.0 367.0
317 37.0 396.0
318 170.0 196.0
319 388.0 84.0
320 37.0 148.0
321 220.0 8.0
322 329.0 423.0
323 445.0 277.0
324 43.0 380.0
325 338.0 374.0
326 305.0 308.0
327 231.0 43.0
328 147.0 134.0
329 449.0 174.0
330 270.0 448.0
331 169.0 441.0
332 348.0 413.0
333 151.0 233.0
334 26.0 9.0
335 275.0 24.0
336 307.0 24.0
337 255.0 208.0
338 438.0 113.0
339 128.0 144.0
340 170.0 201.0
341 52.0 154.0
342 376.0 214.0
343 82.0 177.0
344 105.0 204.0
345 65.0 108.0
346 185.0 317.0
347 99.0 63.0
348 228.0 332.0
349 50.0 228.0
350 85.0 20.0
351 98.0 311.0
352 387.0 63.0
353 270.0 224.0
354 356.0 159.0
355 379.0 299.0
356 332.0 1.0
357 167.0 217.0
358 4.0 110.0
359 149.0 330.0
360 134.0 402.0
361 301.0 357.0
362 115.0 278.0
363 368.0 254.0
364 185.0 228.0
365 41.0 54.0
366 193.0 52.0
367 416.0 372.0
368 104.0 303.0
369 126.0 75.0
370 165.0 237.0
371 310.0 209.0
372 60.0 162.0
373 388.0 436.0
374 348.0 348.0
375 22.0 208.0
376 252.0 21.0
377 144.0 303.0
378 339.0 97.0
379 419.0 341.0
380 85.0 215.0
381 367.0 244.0
382 61.0 341.0
383 286.0 337.0
384 217.0 229.0
385 242.0 160.0
386 426.0 372.0
387 278.0 252.0
388 40.0 102.0
389 57.0 296.0
390 422.0 194.0
391 27.0 401.0
392 365.0 73.0
393 113.0 154.0
394 210.0 416.0
395 378.0 240.0
396 313.0 396.0
397 132.0 387.0
398 167.0 281.0
399 435.0 398.0
400 120.0 206.0
401 24.0 291.0
402 255.0 83.0
403 432.0 145.0
404 210.0 446.0
405 307.0 63.0
406 395.0 83.0
407 304.0 290.0
408 14.0 58.0
409 418.0 205.0
410 366.0 236.0
411 327.0 326.0
412 6.0 82.0
413 202.0 6.0
414 242.0 400.0
415 136.0 378.0
416 245.0 124.0
417 152.0 256.0
418 343.0 225.0
419 113.0 118.0
420 28.0 363.0
421 278.0 142.0
422 185.0 375.0
423 351.0 321.0
424 423.0 93.0
425 291.0 428.0
426 408.0 236.0
427 300.0 391.0
428 92.0 218.0
429 181.0 124.0
430 339.0 382.0
431 195.0 450.0
432 211.0 219.0
433 131.0 406.0
434 267.0 432.0
435 403.0 230.0
436 167.0 202.0
437 170.0 322.0
438 14.0 413.0
439 316.0 288.0
440 422.0 294.0
441 384.0 46.0
442 326.0 323.0
443 429.0 221.0
444 365.0 73.0
445 72.0 355.0
446 188.0 241.0
447 434.0 334.0
448 95.0 98.0
449 326.0 79.0
450 424.0 166.0
EOF





